/*The first floor contains a hydrogen-compatible microchip and a lithium-compatible microchip.*/
/*The second floor contains a hydrogen generator.*/
/*The third floor contains a lithium generator.*/
/*The fourth floor contains nothing relevant.*/

max_steps = 12;
num_items = 2;
chip_start =      [1, 1];
generator_start = [2, 3];
